; PUSH 0x01 MUL => 
(set-option :produce-proofs true)
; 
(set-info :status unknown)
(declare-fun storage_t ((_ BitVec 256) Int (_ BitVec 256)) (_ BitVec 256))
(declare-fun storage_s ((_ BitVec 256) Int (_ BitVec 256)) (_ BitVec 256))
(declare-fun exc_halt_t (Int) Bool)
(declare-fun exc_halt_s (Int) Bool)
(declare-fun sc_t (Int) (_ BitVec 6))
(declare-fun stack_t ((_ BitVec 256) Int (_ BitVec 6)) (_ BitVec 256))
(declare-fun stack_s ((_ BitVec 256) Int (_ BitVec 6)) (_ BitVec 256))
(declare-fun sc_s (Int) (_ BitVec 6))
(declare-fun used_gas_t ((_ BitVec 256) Int) Int)
(declare-fun used_gas_s ((_ BitVec 256) Int) Int)
(assert
 (exists ((x_0 (_ BitVec 256)) )(let (($x71 (forall ((w (_ BitVec 256)) )(let ((?x3862 (storage_t x_0 0 w)))
 (let ((?x8901 (storage_s x_0 2 w)))
 (= ?x8901 ?x3862))))
 ))
 (let (($x56 (exc_halt_t 0)))
 (let (($x247 (exc_halt_s 2)))
 (let (($x5314 (= $x247 $x56)))
 (let (($x11600 (forall ((n (_ BitVec 6)) )(let ((?x63 (sc_t 0)))
 (let (($x6321 (bvsle ?x63 n)))
 (let ((?x7209 (stack_t x_0 0 n)))
 (let ((?x9459 (stack_s x_0 2 n)))
 (let (($x200 (= ?x9459 ?x7209)))
 (or $x200 $x6321)))))))
 ))
 (let ((?x63 (sc_t 0)))
 (let ((?x218 (sc_s 2)))
 (let (($x7953 (= ?x218 ?x63)))
 (let ((?x7030 (used_gas_s x_0 0)))
 (let (($x8558 (= ?x7030 (used_gas_t x_0 0))))
 (let (($x3836 (forall ((w (_ BitVec 256)) )(let ((?x3862 (storage_t x_0 0 w)))
 (let ((?x4681 (storage_s x_0 0 w)))
 (= ?x4681 ?x3862))))
 ))
 (let (($x57 (exc_halt_s 0)))
 (let (($x58 (= $x57 $x56)))
 (let (($x1095 (forall ((n (_ BitVec 6)) )(let ((?x7209 (stack_t x_0 0 n)))
 (let ((?x3120 (stack_s x_0 0 n)))
 (let (($x7035 (= ?x3120 ?x7209)))
 (let ((?x63 (sc_t 0)))
 (let (($x6321 (bvsle ?x63 n)))
 (or $x6321 $x7035)))))))
 ))
 (let ((?x72 (sc_s 0)))
 (let (($x73 (= ?x72 ?x63)))
 (let (($x1793 (= $x247 (or (exc_halt_s 1) (not (bvsle (_ bv0 6) (bvadd (_ bv62 6) (sc_s 1))))))))
 (let (($x5059 (forall ((w (_ BitVec 256)) )(let ((?x2581 (storage_s x_0 1 w)))
 (let ((?x8901 (storage_s x_0 2 w)))
 (= ?x8901 ?x2581))))
 ))
 (let (($x211 (forall ((n (_ BitVec 6)) )(let ((?x154 (sc_s 1)))
 (let ((?x1874 (bvadd (_ bv62 6) ?x154)))
 (let (($x10991 (bvsle ?x1874 n)))
 (or (= (stack_s x_0 2 n) (stack_s x_0 1 n)) $x10991)))))
 ))
 (let ((?x154 (sc_s 1)))
 (let ((?x2527 (bvadd (_ bv63 6) ?x154)))
 (let (($x11069 (= ?x218 ?x2527)))
 (let ((?x899 (bvmul (stack_s x_0 1 (bvadd (_ bv62 6) ?x154)) (stack_s x_0 1 ?x2527))))
 (let (($x189 (exc_halt_s 1)))
 (let (($x788 (= $x189 (or $x57 (not (= ((_ extract 6 6) (bvadd (_ bv1 7) (concat (_ bv0 1) ?x72))) (_ bv0 1)))))))
 (let (($x216 (forall ((w (_ BitVec 256)) )(let ((?x4681 (storage_s x_0 0 w)))
 (let ((?x2581 (storage_s x_0 1 w)))
 (= ?x2581 ?x4681))))
 ))
 (let (($x10056 (forall ((n (_ BitVec 6)) )(let ((?x72 (sc_s 0)))
 (let (($x720 (bvsle ?x72 n)))
 (or $x720 (= (stack_s x_0 1 n) (stack_s x_0 0 n))))))
 ))
 (let (($x481 (= ?x154 (bvadd (_ bv1 6) ?x72))))
 (let (($x10080 (forall ((w (_ BitVec 256)) )(let ((?x4681 (storage_s x_0 0 w)))
 (= ?x4681 (_ bv0 256))))
 ))
 (let (($x633 (= ?x7030 0)))
 (let (($x1438 (not $x57)))
 (let (($x4125 (= (stack_s x_0 0 (_ bv0 6)) x_0)))
 (let (($x8685 (= ?x72 (_ bv1 6))))
 (and $x8685 $x4125 $x1438 $x633 $x10080 (= (stack_s x_0 1 ?x72) (_ bv1 256)) (= (used_gas_s x_0 1) (+ 3 ?x7030)) $x481 $x10056 $x216 $x788 (= (stack_s x_0 2 (bvadd (_ bv63 6) ?x218)) ?x899) (= (used_gas_s x_0 2) (+ 5 (used_gas_s x_0 1))) $x11069 $x211 $x5059 $x1793 $x73 $x1095 $x58 $x3836 $x8558 (not (and $x7953 $x11600 $x5314 $x71)))))))))))))))))))))))))))))))))))))
 )
(check-sat)
(get-proof)
